pure_adt/isaplanner_prop_23.smt2
(set-logic HORN)
(declare-datatypes ((Nat_47 0)) (((Z_137 ) (S_47 (projS_44 Nat_47)))))
(declare-fun diseqNat_47 (Nat_47 Nat_47) Bool)
(declare-fun projS_45 (Nat_47 Nat_47) Bool)
(declare-fun isZ_47 (Nat_47) Bool)
(declare-fun isS_47 (Nat_47) Bool)
(assert (forall ((x_1433 Nat_47))
	(projS_45 x_1433 (S_47 x_1433))))
(assert (isZ_47 Z_137))
(assert (forall ((x_1435 Nat_47))
	(isS_47 (S_47 x_1435))))
(assert (forall ((x_1436 Nat_47))
	(diseqNat_47 Z_137 (S_47 x_1436))))
(assert (forall ((x_1437 Nat_47))
	(diseqNat_47 (S_47 x_1437) Z_137)))
(assert (forall ((x_1438 Nat_47) (x_1439 Nat_47))
	(=> (diseqNat_47 x_1438 x_1439)
	    (diseqNat_47 (S_47 x_1438) (S_47 x_1439)))))
(declare-fun max_1 (Nat_47 Nat_47 Nat_47) Bool)
(assert (forall ((x_1426 Nat_47) (x_1424 Nat_47) (z_138 Nat_47))
	(=> (max_1 x_1426 z_138 x_1424)
	    (max_1 (S_47 x_1426) (S_47 z_138) (S_47 x_1424)))))
(assert (forall ((z_138 Nat_47))
	(max_1 (S_47 z_138) (S_47 z_138) Z_137)))
(assert (forall ((x_1428 Nat_47))
	(max_1 x_1428 Z_137 x_1428)))
(assert (forall ((x_1429 Nat_47) (x_1430 Nat_47) (a_3 Nat_47) (b_3 Nat_47))
	(=>	(and true
			(diseqNat_47 x_1429 x_1430)
			(max_1 x_1429 a_3 b_3)
			(max_1 x_1430 b_3 a_3))
		false)))
(check-sat)
